Maximize
F - f1 - f2

Subject to
F - 0y85 - 4y121 - 0y131 - 6y83 - 4y78 - 4y190 - 6y61 - 6y206 - 6y183 - 6y136 - 6y89 - 6y192 - 2y145 - 6y152 - 8y169 - 8y96 - 8y176 - 6y147 - 4y43 - 8y62 - 6y80 = 0
f1 - 0.006043s85 - 0.006043s121 - 0.006043s131 - 0.006043s83 - 0.006043s78 - 0.006043s190 - 0.006043s61 - 0.006043s206 - 0.006043s183 - 0.006043s136 - 0.006043s89 - 0.006043s192 - 0.006043s145 - 0.006043s152 - 0.006043s169 - 0.006043s96 - 0.006043s176 - 0.006043s147 - 0.006043s43 - 0.006043s62 - 0.006043s80  = 0
f2 - 3.84y85 - 3.61y121 - 3.50y131 - 1.00y83 - 0.99y78 - 0.95y190 - 0.95y61 - 0.64y206 - 0.56y183 - 0.53y136 - 0.47y89 - 0.31y192 - 0.18y145 - 0.38y152 - 0.78y169 - 0.78y96 - 0.60y176 - 0.41y147 - 0.88y43 - 0.26y62 - 0.94y80 = 0

x19x83x1 + x19x78x1 + x19x190x1 + x19x206x1 + x19x183x1 + x19x89x1 + x19x192x1 + x19x152x1 + x19x96x1 + x19x147x1 + x19x43x1 
<= 1
x35x83x1 + x35x78x1 + x35x190x1 + x35x206x1 + x35x183x1 + x35x89x1 + x35x192x1 + x35x152x1 + x35x96x1 + x35x147x1 + x35x43x1 
<= 2
x108x83x1 + x108x78x1 + x108x190x1 + x108x206x1 + x108x183x1 + x108x89x1 + x108x192x1 + x108x152x1 + x108x96x1 + x108x147x1 + x108x43x1 
<= 1
x131x83x1 + x131x78x1 + x131x190x1 + x131x206x1 + x131x183x1 + x131x89x1 + x131x192x1 + x131x152x1 + x131x96x1 + x131x147x1 + x131x43x1 
<= 2

x19x206x2 + x19x176x2 + x19x147x2 + x19x62x2 + x19x80x2 
<= 1
x59x206x2 + x59x176x2 + x59x147x2 + x59x62x2 + x59x80x2 
<= 1
x20x206x2 + x20x176x2 + x20x147x2 + x20x62x2 + x20x80x2 
<= 1
x64x206x2 + x64x176x2 + x64x147x2 + x64x62x2 + x64x80x2 
<= 2
x160x206x2 + x160x176x2 + x160x147x2 + x160x62x2 + x160x80x2 
<= 1
x59x61x3 + x59x136x3 + x59x89x3 + x59x192x3 + x59x145x3 + x59x152x3 + x59x169x3 + x59x96x3 + x59x176x3 + x59x43x3 + x59x80x3 
<= 1
x108x61x3 + x108x136x3 + x108x89x3 + x108x192x3 + x108x145x3 + x108x152x3 + x108x169x3 + x108x96x3 + x108x176x3 + x108x43x3 + x108x80x3 
<= 1
x20x61x3 + x20x136x3 + x20x89x3 + x20x192x3 + x20x145x3 + x20x152x3 + x20x169x3 + x20x96x3 + x20x176x3 + x20x43x3 + x20x80x3 
<= 1
x160x61x3 + x160x136x3 + x160x89x3 + x160x192x3 + x160x145x3 + x160x152x3 + x160x169x3 + x160x96x3 + x160x176x3 + x160x43x3 + x160x80x3 
<= 1
x85x61x3 + x85x136x3 + x85x89x3 + x85x192x3 + x85x145x3 + x85x152x3 + x85x169x3 + x85x96x3 + x85x176x3 + x85x43x3 + x85x80x3 
<= 2



- x85x61x3 - x85x136x3 - x85x89x3 - x85x192x3 - x85x145x3 - x85x152x3 - x85x169x3 - x85x96x3 - x85x176x3 - x85x43x3 - x85x80x3 
= 0



- x121x206x2 - x121x176x2 - x121x147x2 - x121x62x2 - x121x80x2 
= 0



- x131x83x1 - x131x78x1 - x131x190x1 - x131x206x1 - x131x183x1 - x131x89x1 - x131x192x1 - x131x152x1 - x131x96x1 - x131x147x1 - x131x43x1 
= 0



x19x83x1 + x35x83x1 + x108x83x1 + x131x83x1 + x131x83x1 
- x83x0x1
- x83x190x1 - x83x206x1 - x83x183x1 - x83x89x1 - x83x192x1 - x83x152x1 - x83x96x1 - x83x147x1 - x83x43x1 
= 0



x19x78x1 + x35x78x1 + x108x78x1 + x131x78x1 + x131x78x1 
- x78x0x1
- x78x206x1 - x78x183x1 - x78x89x1 - x78x192x1 - x78x152x1 - x78x96x1 - x78x147x1 - x78x43x1 
= 0



x19x190x1 + x35x190x1 + x108x190x1 + x131x190x1 + x131x190x1 + x83x190x1 
- x190x0x1
- x190x206x1 - x190x183x1 - x190x89x1 - x190x192x1 - x190x152x1 - x190x96x1 - x190x147x1 - x190x43x1 
= 0





x59x61x3 + x108x61x3 + x20x61x3 + x160x61x3 + x85x61x3 + x85x61x3 
- x61x0x3
- x61x136x3 - x61x89x3 - x61x192x3 - x61x145x3 - x61x152x3 - x61x169x3 - x61x96x3 - x61x176x3 - x61x43x3 - x61x80x3 
= 0

x19x206x1 + x35x206x1 + x108x206x1 + x131x206x1 + x131x206x1 + x83x206x1 + x78x206x1 + x190x206x1 
- x206x0x1
- x206x183x1 - x206x89x1 - x206x192x1 - x206x152x1 - x206x96x1 - x206x147x1 - x206x43x1 
= 0
x19x206x2 + x59x206x2 + x20x206x2 + x64x206x2 + x160x206x2 + x121x206x2 
- x206x0x2
- x206x176x2 - x206x147x2 - x206x62x2 - x206x80x2 
= 0


x19x183x1 + x35x183x1 + x108x183x1 + x131x183x1 + x131x183x1 + x83x183x1 + x78x183x1 + x190x183x1 + x206x183x1 
- x183x0x1
- x183x89x1 - x183x192x1 - x183x152x1 - x183x96x1 - x183x147x1 - x183x43x1 
= 0





x59x136x3 + x108x136x3 + x20x136x3 + x160x136x3 + x85x136x3 + x85x136x3 + x61x136x3 
- x136x0x3
- x136x89x3 - x136x192x3 - x136x145x3 - x136x152x3 - x136x169x3 - x136x96x3 - x136x176x3 - x136x43x3 - x136x80x3 
= 0

x19x89x1 + x35x89x1 + x108x89x1 + x131x89x1 + x131x89x1 + x83x89x1 + x78x89x1 + x190x89x1 + x206x89x1 + x183x89x1 
- x89x0x1
- x89x192x1 - x89x152x1 - x89x96x1 - x89x147x1 - x89x43x1 
= 0

x59x89x3 + x108x89x3 + x20x89x3 + x160x89x3 + x85x89x3 + x85x89x3 + x61x89x3 + x136x89x3 
- x89x0x3
- x89x192x3 - x89x145x3 - x89x152x3 - x89x169x3 - x89x96x3 - x89x176x3 - x89x43x3 - x89x80x3 
= 0

x19x192x1 + x35x192x1 + x108x192x1 + x131x192x1 + x131x192x1 + x83x192x1 + x78x192x1 + x190x192x1 + x206x192x1 + x183x192x1 + x89x192x1 
- x192x0x1
- x192x152x1 - x192x96x1 - x192x147x1 - x192x43x1 
= 0

x59x192x3 + x108x192x3 + x20x192x3 + x160x192x3 + x85x192x3 + x85x192x3 + x61x192x3 + x136x192x3 + x89x192x3 
- x192x0x3
- x192x145x3 - x192x152x3 - x192x169x3 - x192x96x3 - x192x176x3 - x192x43x3 - x192x80x3 
= 0



x59x145x3 + x108x145x3 + x20x145x3 + x160x145x3 + x85x145x3 + x85x145x3 + x61x145x3 + x136x145x3 + x89x145x3 + x192x145x3 
- x145x0x3
- x145x152x3 - x145x169x3 - x145x96x3 - x145x176x3 - x145x43x3 - x145x80x3 
= 0

x19x152x1 + x35x152x1 + x108x152x1 + x131x152x1 + x131x152x1 + x83x152x1 + x78x152x1 + x190x152x1 + x206x152x1 + x183x152x1 + x89x152x1 + x192x152x1 
- x152x0x1
- x152x147x1 
= 0

x59x152x3 + x108x152x3 + x20x152x3 + x160x152x3 + x85x152x3 + x85x152x3 + x61x152x3 + x136x152x3 + x89x152x3 + x192x152x3 + x145x152x3 
- x152x0x3
- x152x176x3 
= 0



x59x169x3 + x108x169x3 + x20x169x3 + x160x169x3 + x85x169x3 + x85x169x3 + x61x169x3 + x136x169x3 + x89x169x3 + x192x169x3 + x145x169x3 
- x169x0x3
- x169x43x3 - x169x80x3 
= 0

x19x96x1 + x35x96x1 + x108x96x1 + x131x96x1 + x131x96x1 + x83x96x1 + x78x96x1 + x190x96x1 + x206x96x1 + x183x96x1 + x89x96x1 + x192x96x1 
- x96x0x1

= 0

x59x96x3 + x108x96x3 + x20x96x3 + x160x96x3 + x85x96x3 + x85x96x3 + x61x96x3 + x136x96x3 + x89x96x3 + x192x96x3 + x145x96x3 
- x96x0x3
- x96x80x3 
= 0


x19x176x2 + x59x176x2 + x20x176x2 + x64x176x2 + x160x176x2 + x121x176x2 + x206x176x2 
- x176x0x2

= 0
x59x176x3 + x108x176x3 + x20x176x3 + x160x176x3 + x85x176x3 + x85x176x3 + x61x176x3 + x136x176x3 + x89x176x3 + x192x176x3 + x145x176x3 + x152x176x3 
- x176x0x3

= 0

x19x147x1 + x35x147x1 + x108x147x1 + x131x147x1 + x131x147x1 + x83x147x1 + x78x147x1 + x190x147x1 + x206x147x1 + x183x147x1 + x89x147x1 + x192x147x1 + x152x147x1 
- x147x0x1

= 0
x19x147x2 + x59x147x2 + x20x147x2 + x64x147x2 + x160x147x2 + x121x147x2 + x206x147x2 
- x147x0x2

= 0


x19x43x1 + x35x43x1 + x108x43x1 + x131x43x1 + x131x43x1 + x83x43x1 + x78x43x1 + x190x43x1 + x206x43x1 + x183x43x1 + x89x43x1 + x192x43x1 
- x43x0x1

= 0

x59x43x3 + x108x43x3 + x20x43x3 + x160x43x3 + x85x43x3 + x85x43x3 + x61x43x3 + x136x43x3 + x89x43x3 + x192x43x3 + x145x43x3 + x169x43x3 
- x43x0x3
- x43x80x3 
= 0


x19x62x2 + x59x62x2 + x20x62x2 + x64x62x2 + x160x62x2 + x121x62x2 + x206x62x2 
- x62x0x2

= 0



x19x80x2 + x59x80x2 + x20x80x2 + x64x80x2 + x160x80x2 + x121x80x2 + x206x80x2 
- x80x0x2

= 0
x59x80x3 + x108x80x3 + x20x80x3 + x160x80x3 + x85x80x3 + x85x80x3 + x61x80x3 + x136x80x3 + x89x80x3 + x192x80x3 + x145x80x3 + x169x80x3 + x96x80x3 + x43x80x3 
- x80x0x3

= 0

2y85 = 0
2y121 = 0
2y131 = 0
2y83 - x19x83x1 - x35x83x1 - x108x83x1 - x131x83x1 - x131x83x1 = 0
2y78 - x19x78x1 - x35x78x1 - x108x78x1 - x131x78x1 - x131x78x1 = 0
2y190 - x19x190x1 - x35x190x1 - x108x190x1 - x131x190x1 - x131x190x1 - x83x190x1 = 0
2y61 - x59x61x3 - x108x61x3 - x20x61x3 - x160x61x3 - x85x61x3 - x85x61x3 = 0
1y206 - x19x206x1 - x35x206x1 - x108x206x1 - x131x206x1 - x131x206x1 - x83x206x1 - x78x206x1 - x190x206x1 = 0
1y206 - x19x206x2 - x59x206x2 - x20x206x2 - x64x206x2 - x160x206x2 - x121x206x2 = 0
2y183 - x19x183x1 - x35x183x1 - x108x183x1 - x131x183x1 - x131x183x1 - x83x183x1 - x78x183x1 - x190x183x1 - x206x183x1 = 0
2y136 - x59x136x3 - x108x136x3 - x20x136x3 - x160x136x3 - x85x136x3 - x85x136x3 - x61x136x3 = 0
1y89 - x19x89x1 - x35x89x1 - x108x89x1 - x131x89x1 - x131x89x1 - x83x89x1 - x78x89x1 - x190x89x1 - x206x89x1 - x183x89x1 = 0
1y89 - x59x89x3 - x108x89x3 - x20x89x3 - x160x89x3 - x85x89x3 - x85x89x3 - x61x89x3 - x136x89x3 = 0
1y192 - x19x192x1 - x35x192x1 - x108x192x1 - x131x192x1 - x131x192x1 - x83x192x1 - x78x192x1 - x190x192x1 - x206x192x1 - x183x192x1 - x89x192x1 = 0
1y192 - x59x192x3 - x108x192x3 - x20x192x3 - x160x192x3 - x85x192x3 - x85x192x3 - x61x192x3 - x136x192x3 - x89x192x3 = 0
2y145 - x59x145x3 - x108x145x3 - x20x145x3 - x160x145x3 - x85x145x3 - x85x145x3 - x61x145x3 - x136x145x3 - x89x145x3 - x192x145x3 = 0
1y152 - x19x152x1 - x35x152x1 - x108x152x1 - x131x152x1 - x131x152x1 - x83x152x1 - x78x152x1 - x190x152x1 - x206x152x1 - x183x152x1 - x89x152x1 - x192x152x1 = 0
1y152 - x59x152x3 - x108x152x3 - x20x152x3 - x160x152x3 - x85x152x3 - x85x152x3 - x61x152x3 - x136x152x3 - x89x152x3 - x192x152x3 - x145x152x3 = 0
2y169 - x59x169x3 - x108x169x3 - x20x169x3 - x160x169x3 - x85x169x3 - x85x169x3 - x61x169x3 - x136x169x3 - x89x169x3 - x192x169x3 - x145x169x3 = 0
1y96 - x19x96x1 - x35x96x1 - x108x96x1 - x131x96x1 - x131x96x1 - x83x96x1 - x78x96x1 - x190x96x1 - x206x96x1 - x183x96x1 - x89x96x1 - x192x96x1 = 0
1y96 - x59x96x3 - x108x96x3 - x20x96x3 - x160x96x3 - x85x96x3 - x85x96x3 - x61x96x3 - x136x96x3 - x89x96x3 - x192x96x3 - x145x96x3 = 0
1y176 - x19x176x2 - x59x176x2 - x20x176x2 - x64x176x2 - x160x176x2 - x121x176x2 - x206x176x2 = 0
1y176 - x59x176x3 - x108x176x3 - x20x176x3 - x160x176x3 - x85x176x3 - x85x176x3 - x61x176x3 - x136x176x3 - x89x176x3 - x192x176x3 - x145x176x3 - x152x176x3 = 0
1y147 - x19x147x1 - x35x147x1 - x108x147x1 - x131x147x1 - x131x147x1 - x83x147x1 - x78x147x1 - x190x147x1 - x206x147x1 - x183x147x1 - x89x147x1 - x192x147x1 - x152x147x1 = 0
1y147 - x19x147x2 - x59x147x2 - x20x147x2 - x64x147x2 - x160x147x2 - x121x147x2 - x206x147x2 = 0
1y43 - x19x43x1 - x35x43x1 - x108x43x1 - x131x43x1 - x131x43x1 - x83x43x1 - x78x43x1 - x190x43x1 - x206x43x1 - x183x43x1 - x89x43x1 - x192x43x1 = 0
1y43 - x59x43x3 - x108x43x3 - x20x43x3 - x160x43x3 - x85x43x3 - x85x43x3 - x61x43x3 - x136x43x3 - x89x43x3 - x192x43x3 - x145x43x3 - x169x43x3 = 0
2y62 - x19x62x2 - x59x62x2 - x20x62x2 - x64x62x2 - x160x62x2 - x121x62x2 - x206x62x2 = 0
1y80 - x19x80x2 - x59x80x2 - x20x80x2 - x64x80x2 - x160x80x2 - x121x80x2 - x206x80x2 = 0
1y80 - x59x80x3 - x108x80x3 - x20x80x3 - x160x80x3 - x85x80x3 - x85x80x3 - x61x80x3 - x136x80x3 - x89x80x3 - x192x80x3 - x145x80x3 - x169x80x3 - x96x80x3 - x43x80x3 = 0

s19 - s83 + 6.762722z19z83z1 <= 5.03
s19 - s78 + 6.715733z19z78z1 <= 5.03
s19 - s190 + 6.782675z19z190z1 <= 5.03
s19 - s206 + 6.825973z19z206z1 <= 5.03
s19 - s206 + 6.825973z19z206z2 <= 5.03
s19 - s183 + 6.817300z19z183z1 <= 5.03
s19 - s89 + 6.775795z19z89z1 <= 5.03
s19 - s192 + 6.783294z19z192z1 <= 5.03
s19 - s152 + 7.051606z19z152z1 <= 5.03
s19 - s96 + 6.972699z19z96z1 <= 5.03
s19 - s176 + 7.044250z19z176z2 <= 5.03
s19 - s147 + 7.074725z19z147z1 <= 5.03
s19 - s147 + 7.074725z19z147z2 <= 5.03
s19 - s43 + 6.906706z19z43z1 <= 5.03
s19 - s62 + 7.105968z19z62z2 <= 5.03
s19 - s80 + 6.935136z19z80z2 <= 5.03
s35 - s83 + 6.834822z35z83z1 <= 5.25
s35 - s78 + 6.812037z35z78z1 <= 5.25
s35 - s190 + 6.854198z35z190z1 <= 5.25
s35 - s206 + 6.927231z35z206z1 <= 5.25
s35 - s183 + 6.934159z35z183z1 <= 5.25
s35 - s89 + 6.923226z35z89z1 <= 5.25
s35 - s192 + 6.950396z35z192z1 <= 5.25
s35 - s152 + 7.222827z35z152z1 <= 5.25
s35 - s96 + 7.221359z35z96z1 <= 5.25
s35 - s147 + 7.243770z35z147z1 <= 5.25
s35 - s43 + 7.192540z35z43z1 <= 5.25
s59 - s61 + 6.698340z59z61z3 <= 5.20
s59 - s206 + 6.809440z59z206z2 <= 5.20
s59 - s136 + 6.764877z59z136z3 <= 5.20
s59 - s89 + 6.764172z59z89z3 <= 5.20
s59 - s192 + 6.777231z59z192z3 <= 5.20
s59 - s145 + 6.762995z59z145z3 <= 5.20
s59 - s152 + 7.068756z59z152z3 <= 5.20
s59 - s169 + 6.968319z59z169z3 <= 5.20
s59 - s96 + 7.005246z59z96z3 <= 5.20
s59 - s176 + 7.069240z59z176z2 <= 5.20
s59 - s176 + 7.069240z59z176z3 <= 5.20
s59 - s147 + 7.092676z59z147z2 <= 5.20
s59 - s43 + 6.944968z59z43z3 <= 5.20
s59 - s62 + 7.103113z59z62z2 <= 5.20
s59 - s80 + 6.974691z59z80z2 <= 5.20
s59 - s80 + 6.974691z59z80z3 <= 5.20
s108 - s83 + 6.936181z108z83z1 <= 5.41
s108 - s78 + 6.888127z108z78z1 <= 5.41
s108 - s190 + 6.958189z108z190z1 <= 5.41
s108 - s61 + 6.900898z108z61z3 <= 5.41
s108 - s206 + 7.011853z108z206z1 <= 5.41
s108 - s183 + 7.005665z108z183z1 <= 5.41
s108 - s136 + 6.967259z108z136z3 <= 5.41
s108 - s89 + 6.966542z108z89z1 <= 5.41
s108 - s89 + 6.966542z108z89z3 <= 5.41
s108 - s192 + 6.979583z108z192z1 <= 5.41
s108 - s192 + 6.979583z108z192z3 <= 5.41
s108 - s145 + 6.965345z108z145z3 <= 5.41
s108 - s152 + 7.271150z108z152z1 <= 5.41
s108 - s152 + 7.271150z108z152z3 <= 5.41
s108 - s169 + 7.170877z108z169z3 <= 5.41
s108 - s96 + 7.207785z108z96z1 <= 5.41
s108 - s96 + 7.207785z108z96z3 <= 5.41
s108 - s176 + 7.271691z108z176z3 <= 5.41
s108 - s147 + 7.295073z108z147z1 <= 5.41
s108 - s43 + 7.147595z108z43z1 <= 5.41
s108 - s43 + 7.147595z108z43z3 <= 5.41
s108 - s80 + 7.177325z108z80z3 <= 5.41
s20 - s61 + 6.308412z20z61z3 <= 4.83
s20 - s206 + 6.420476z20z206z2 <= 4.83
s20 - s136 + 6.376322z20z136z3 <= 4.83
s20 - s89 + 6.375831z20z89z3 <= 4.83
s20 - s192 + 6.389461z20z192z3 <= 4.83
s20 - s145 + 6.375831z20z145z3 <= 4.83
s20 - s152 + 6.682805z20z152z3 <= 4.83
s20 - s169 + 6.584410z20z169z3 <= 4.83
s20 - s96 + 6.621140z20z96z3 <= 4.83
s20 - s176 + 6.684138z20z176z2 <= 4.83
s20 - s176 + 6.684138z20z176z3 <= 4.83
s20 - s147 + 6.706766z20z147z2 <= 4.83
s20 - s43 + 6.561703z20z43z3 <= 4.83
s20 - s62 + 6.715045z20z62z2 <= 4.83
s20 - s80 + 6.591476z20z80z2 <= 4.83
s20 - s80 + 6.591476z20z80z3 <= 4.83
s64 - s206 + 7.256492z64z206z2 <= 5.70
s64 - s176 + 7.572235z64z176z2 <= 5.70
s64 - s147 + 7.565031z64z147z2 <= 5.70
s64 - s62 + 7.493118z64z62z2 <= 5.70
s64 - s80 + 7.552250z64z80z2 <= 5.70
s160 - s61 + 7.073821z160z61z3 <= 5.62
s160 - s206 + 7.166454z160z206z2 <= 5.62
s160 - s136 + 7.161077z160z136z3 <= 5.62
s160 - s89 + 7.169021z160z89z3 <= 5.62
s160 - s192 + 7.196501z160z192z3 <= 5.62
s160 - s145 + 7.209399z160z145z3 <= 5.62
s160 - s152 + 7.455714z160z152z3 <= 5.62
s160 - s169 + 7.438905z160z169z3 <= 5.62
s160 - s96 + 7.461666z160z96z3 <= 5.62
s160 - s176 + 7.482767z160z176z2 <= 5.62
s160 - s176 + 7.482767z160z176z3 <= 5.62
s160 - s147 + 7.475922z160z147z2 <= 5.62
s160 - s43 + 7.438197z160z43z3 <= 5.62
s160 - s62 + 7.404943z160z62z2 <= 5.62
s160 - s80 + 7.461931z160z80z2 <= 5.62
s160 - s80 + 7.461931z160z80z3 <= 5.62
s85 - s61 + 6.846442z85z61z3 <= 5.40
s85 - s136 + 6.933577z85z136z3 <= 5.40
s85 - s89 + 6.941535z85z89z3 <= 5.40
s85 - s192 + 6.969016z85z192z3 <= 5.40
s85 - s145 + 6.981983z85z145z3 <= 5.40
s85 - s152 + 7.228064z85z152z3 <= 5.40
s85 - s169 + 7.211336z85z169z3 <= 5.40
s85 - s96 + 7.234063z85z96z3 <= 5.40
s85 - s176 + 7.255120z85z176z3 <= 5.40
s85 - s43 + 7.210677z85z43z3 <= 5.40
s85 - s80 + 7.234384z85z80z3 <= 5.40
s131 - s83 + 7.342400z131z83z1 <= 5.94
s131 - s78 + 7.324419z131z78z1 <= 5.94
s131 - s190 + 7.360509z131z190z1 <= 5.94
s131 - s206 + 7.432383z131z206z1 <= 5.94
s131 - s183 + 7.440098z131z183z1 <= 5.94
s131 - s89 + 7.432248z131z89z1 <= 5.94
s131 - s192 + 7.459674z131z192z1 <= 5.94
s131 - s152 + 7.725608z131z152z1 <= 5.94
s131 - s96 + 7.727411z131z96z1 <= 5.94
s131 - s147 + 7.746353z131z147z1 <= 5.94
s131 - s43 + 7.701833z131z43z1 <= 5.94
s85 - s61 + 7.445072z85z61z3 <= 6.00
s85 - s136 + 7.532207z85z136z3 <= 6.00
s85 - s89 + 7.540164z85z89z3 <= 6.00
s85 - s192 + 7.567646z85z192z3 <= 6.00
s85 - s145 + 7.580613z85z145z3 <= 6.00
s85 - s152 + 7.826694z85z152z3 <= 6.00
s85 - s169 + 7.809966z85z169z3 <= 6.00
s85 - s96 + 7.832693z85z96z3 <= 6.00
s85 - s176 + 7.853750z85z176z3 <= 6.00
s85 - s43 + 7.809307z85z43z3 <= 6.00
s85 - s80 + 7.833014z85z80z3 <= 6.00
s121 - s206 + 7.638754z121z206z2 <= 6.14
s121 - s176 + 7.954016z121z176z2 <= 6.14
s121 - s147 + 7.946776z121z147z2 <= 6.14
s121 - s62 + 7.875451z121z62z2 <= 6.14
s121 - s80 + 7.934928z121z80z2 <= 6.14
s131 - s83 + 7.514475z131z83z1 <= 6.11
s131 - s78 + 7.496494z131z78z1 <= 6.11
s131 - s190 + 7.532585z131z190z1 <= 6.11
s131 - s206 + 7.604458z131z206z1 <= 6.11
s131 - s183 + 7.612173z131z183z1 <= 6.11
s131 - s89 + 7.604323z131z89z1 <= 6.11
s131 - s192 + 7.631749z131z192z1 <= 6.11
s131 - s152 + 7.897683z131z152z1 <= 6.11
s131 - s96 + 7.899487z131z96z1 <= 6.11
s131 - s147 + 7.918428z131z147z1 <= 6.11
s131 - s43 + 7.873908z131z43z1 <= 6.11
s83 - s190 + 8.494037z83z190z1 <= 7.47
s83 - s206 + 8.567068z83z206z1 <= 7.47
s83 - s183 + 8.570885z83z183z1 <= 7.47
s83 - s89 + 8.560677z83z89z1 <= 7.47
s83 - s192 + 8.588134z83z192z1 <= 7.47
s83 - s152 + 8.869389z83z152z1 <= 7.47
s83 - s96 + 8.856724z83z96z1 <= 7.47
s83 - s147 + 8.892163z83z147z1 <= 7.47
s83 - s43 + 8.829567z83z43z1 <= 7.47
s78 - s206 + 8.627275z78z206z1 <= 7.49
s78 - s183 + 8.627437z78z183z1 <= 7.49
s78 - s89 + 8.604115z78z89z1 <= 7.49
s78 - s192 + 8.630158z78z192z1 <= 7.49
s78 - s152 + 8.926399z78z152z1 <= 7.49
s78 - s96 + 8.904675z78z96z1 <= 7.49
s78 - s147 + 8.949661z78z147z1 <= 7.49
s78 - s43 + 8.870934z78z43z1 <= 7.49
s190 - s206 + 8.584536z190z206z1 <= 7.51
s190 - s183 + 8.590000z190z183z1 <= 7.51
s190 - s89 + 8.587747z190z89z1 <= 7.51
s190 - s192 + 8.614350z190z192z1 <= 7.51
s190 - s152 + 8.886770z190z152z1 <= 7.51
s190 - s96 + 8.877212z190z96z1 <= 7.51
s190 - s147 + 8.909389z190z147z1 <= 7.51
s190 - s43 + 8.852799z190z43z1 <= 7.51
s61 - s136 + 8.614281z61z136z3 <= 7.52
s61 - s89 + 8.620222z61z89z3 <= 7.52
s61 - s192 + 8.646667z61z192z3 <= 7.52
s61 - s145 + 8.655973z61z145z3 <= 7.52
s61 - s152 + 8.941637z61z152z3 <= 7.52
s61 - s169 + 8.893333z61z169z3 <= 7.52
s61 - s96 + 8.920888z61z96z3 <= 7.52
s61 - s176 + 8.958229z61z176z3 <= 7.52
s61 - s43 + 8.888179z61z43z3 <= 7.52
s61 - s80 + 8.913841z61z80z3 <= 7.52
s206 - s183 + 8.754907z206z183z1 <= 7.74
s206 - s89 + 8.793748z206z89z1 <= 7.74
s206 - s192 + 8.803246z206z192z1 <= 7.74
s206 - s152 + 9.042360z206z152z1 <= 7.74
s206 - s96 + 9.035221z206z96z1 <= 7.74
s206 - s176 + 9.062490z206z176z2 <= 7.74
s206 - s147 + 9.065098z206z147z1 <= 7.74
s206 - s147 + 9.065098z206z147z2 <= 7.74
s206 - s43 + 9.016245z206z43z1 <= 7.74
s206 - s62 + 9.038813z206z62z2 <= 7.74
s206 - s80 + 9.037620z206z80z2 <= 7.74
s183 - s89 + 8.812163z183z89z1 <= 7.77
s183 - s192 + 8.818534z183z192z1 <= 7.77
s183 - s152 + 9.069481z183z152z1 <= 7.77
s183 - s96 + 9.057364z183z96z1 <= 7.77
s183 - s147 + 9.092559z183z147z1 <= 7.77
s183 - s43 + 9.035665z183z43z1 <= 7.77
s136 - s89 + 8.789429z136z89z3 <= 7.78
s136 - s192 + 8.815901z136z192z3 <= 7.78
s136 - s145 + 8.836569z136z145z3 <= 7.78
s136 - s152 + 9.109309z136z152z3 <= 7.78
s136 - s169 + 9.060318z136z169z3 <= 7.78
s136 - s96 + 9.086957z136z96z3 <= 7.78
s136 - s176 + 9.124416z136z176z3 <= 7.78
s136 - s43 + 9.057289z136z43z3 <= 7.78
s136 - s80 + 9.081846z136z80z3 <= 7.78
s89 - s192 + 8.847487z89z192z1 <= 7.82
s89 - s192 + 8.847487z89z192z3 <= 7.82
s89 - s145 + 8.867141z89z145z3 <= 7.82
s89 - s152 + 9.145645z89z152z1 <= 7.82
s89 - s152 + 9.145645z89z152z3 <= 7.82
s89 - s169 + 9.093414z89z169z3 <= 7.82
s89 - s96 + 9.120667z89z96z1 <= 7.82
s89 - s96 + 9.120667z89z96z3 <= 7.82
s89 - s176 + 9.159739z89z176z3 <= 7.82
s89 - s147 + 9.169285z89z147z1 <= 7.82
s89 - s43 + 9.089650z89z43z1 <= 7.82
s89 - s43 + 9.089650z89z43z3 <= 7.82
s89 - s80 + 9.114543z89z80z3 <= 7.82
s192 - s145 + 8.947488z192z145z3 <= 7.92
s192 - s152 + 9.224120z192z152z1 <= 7.92
s192 - s152 + 9.224120z192z152z3 <= 7.92
s192 - s169 + 9.166667z192z169z3 <= 7.92
s192 - s96 + 9.194632z192z96z1 <= 7.92
s192 - s96 + 9.194632z192z96z3 <= 7.92
s192 - s176 + 9.236228z192z176z3 <= 7.92
s192 - s147 + 9.247957z192z147z1 <= 7.92
s192 - s43 + 9.162304z192z43z1 <= 7.92
s192 - s43 + 9.162304z192z43z3 <= 7.92
s192 - s80 + 9.187416z192z80z3 <= 7.92
s145 - s152 + 9.340984z145z152z3 <= 8.03
s145 - s169 + 9.271477z145z169z3 <= 8.03
s145 - s96 + 9.301948z145z96z3 <= 8.03
s145 - s176 + 9.349513z145z176z3 <= 8.03
s145 - s43 + 9.263429z145z43z3 <= 8.03
s145 - s80 + 9.290085z145z80z3 <= 8.03
s152 - s176 + 9.742687z152z176z3 <= 8.70
s152 - s147 + 9.724037z152z147z1 <= 8.70
s169 - s43 + 9.753994z169z43z3 <= 8.72
s169 - s80 + 9.748284z169z80z3 <= 8.72
s96 - s80 + 9.787140z96z80z3 <= 8.74
s43 - s80 + 9.829815z43z80z3 <= 8.80

x19x83x1 - 2z19z83z1 <= 0
x19x78x1 - 2z19z78z1 <= 0
x19x190x1 - 2z19z190z1 <= 0
x19x206x1 - 1z19z206z1 <= 0
x19x206x2 - 1z19z206z2 <= 0
x19x183x1 - 2z19z183z1 <= 0
x19x89x1 - 1z19z89z1 <= 0
x19x192x1 - 1z19z192z1 <= 0
x19x152x1 - 1z19z152z1 <= 0
x19x96x1 - 1z19z96z1 <= 0
x19x176x2 - 1z19z176z2 <= 0
x19x147x1 - 1z19z147z1 <= 0
x19x147x2 - 1z19z147z2 <= 0
x19x43x1 - 1z19z43z1 <= 0
x19x62x2 - 2z19z62z2 <= 0
x19x80x2 - 1z19z80z2 <= 0
x35x83x1 - 2z35z83z1 <= 0
x35x78x1 - 2z35z78z1 <= 0
x35x190x1 - 2z35z190z1 <= 0
x35x206x1 - 1z35z206z1 <= 0
x35x183x1 - 2z35z183z1 <= 0
x35x89x1 - 1z35z89z1 <= 0
x35x192x1 - 1z35z192z1 <= 0
x35x152x1 - 1z35z152z1 <= 0
x35x96x1 - 1z35z96z1 <= 0
x35x147x1 - 1z35z147z1 <= 0
x35x43x1 - 1z35z43z1 <= 0
x59x61x3 - 2z59z61z3 <= 0
x59x206x2 - 1z59z206z2 <= 0
x59x136x3 - 2z59z136z3 <= 0
x59x89x3 - 1z59z89z3 <= 0
x59x192x3 - 1z59z192z3 <= 0
x59x145x3 - 2z59z145z3 <= 0
x59x152x3 - 1z59z152z3 <= 0
x59x169x3 - 2z59z169z3 <= 0
x59x96x3 - 1z59z96z3 <= 0
x59x176x2 - 1z59z176z2 <= 0
x59x176x3 - 1z59z176z3 <= 0
x59x147x2 - 1z59z147z2 <= 0
x59x43x3 - 1z59z43z3 <= 0
x59x62x2 - 2z59z62z2 <= 0
x59x80x2 - 1z59z80z2 <= 0
x59x80x3 - 1z59z80z3 <= 0
x108x83x1 - 2z108z83z1 <= 0
x108x78x1 - 2z108z78z1 <= 0
x108x190x1 - 2z108z190z1 <= 0
x108x61x3 - 2z108z61z3 <= 0
x108x206x1 - 1z108z206z1 <= 0
x108x183x1 - 2z108z183z1 <= 0
x108x136x3 - 2z108z136z3 <= 0
x108x89x1 - 1z108z89z1 <= 0
x108x89x3 - 1z108z89z3 <= 0
x108x192x1 - 1z108z192z1 <= 0
x108x192x3 - 1z108z192z3 <= 0
x108x145x3 - 2z108z145z3 <= 0
x108x152x1 - 1z108z152z1 <= 0
x108x152x3 - 1z108z152z3 <= 0
x108x169x3 - 2z108z169z3 <= 0
x108x96x1 - 1z108z96z1 <= 0
x108x96x3 - 1z108z96z3 <= 0
x108x176x3 - 1z108z176z3 <= 0
x108x147x1 - 1z108z147z1 <= 0
x108x43x1 - 1z108z43z1 <= 0
x108x43x3 - 1z108z43z3 <= 0
x108x80x3 - 1z108z80z3 <= 0
x20x61x3 - 2z20z61z3 <= 0
x20x206x2 - 1z20z206z2 <= 0
x20x136x3 - 2z20z136z3 <= 0
x20x89x3 - 1z20z89z3 <= 0
x20x192x3 - 1z20z192z3 <= 0
x20x145x3 - 2z20z145z3 <= 0
x20x152x3 - 1z20z152z3 <= 0
x20x169x3 - 2z20z169z3 <= 0
x20x96x3 - 1z20z96z3 <= 0
x20x176x2 - 1z20z176z2 <= 0
x20x176x3 - 1z20z176z3 <= 0
x20x147x2 - 1z20z147z2 <= 0
x20x43x3 - 1z20z43z3 <= 0
x20x62x2 - 2z20z62z2 <= 0
x20x80x2 - 1z20z80z2 <= 0
x20x80x3 - 1z20z80z3 <= 0
x64x206x2 - 1z64z206z2 <= 0
x64x176x2 - 1z64z176z2 <= 0
x64x147x2 - 1z64z147z2 <= 0
x64x62x2 - 2z64z62z2 <= 0
x64x80x2 - 1z64z80z2 <= 0
x160x61x3 - 2z160z61z3 <= 0
x160x206x2 - 1z160z206z2 <= 0
x160x136x3 - 2z160z136z3 <= 0
x160x89x3 - 1z160z89z3 <= 0
x160x192x3 - 1z160z192z3 <= 0
x160x145x3 - 2z160z145z3 <= 0
x160x152x3 - 1z160z152z3 <= 0
x160x169x3 - 2z160z169z3 <= 0
x160x96x3 - 1z160z96z3 <= 0
x160x176x2 - 1z160z176z2 <= 0
x160x176x3 - 1z160z176z3 <= 0
x160x147x2 - 1z160z147z2 <= 0
x160x43x3 - 1z160z43z3 <= 0
x160x62x2 - 2z160z62z2 <= 0
x160x80x2 - 1z160z80z2 <= 0
x160x80x3 - 1z160z80z3 <= 0
x85x61x3 - 2z85z61z3 <= 0
x85x136x3 - 2z85z136z3 <= 0
x85x89x3 - 1z85z89z3 <= 0
x85x192x3 - 1z85z192z3 <= 0
x85x145x3 - 2z85z145z3 <= 0
x85x152x3 - 1z85z152z3 <= 0
x85x169x3 - 2z85z169z3 <= 0
x85x96x3 - 1z85z96z3 <= 0
x85x176x3 - 1z85z176z3 <= 0
x85x43x3 - 1z85z43z3 <= 0
x85x80x3 - 1z85z80z3 <= 0
x131x83x1 - 2z131z83z1 <= 0
x131x78x1 - 2z131z78z1 <= 0
x131x190x1 - 2z131z190z1 <= 0
x131x206x1 - 1z131z206z1 <= 0
x131x183x1 - 2z131z183z1 <= 0
x131x89x1 - 1z131z89z1 <= 0
x131x192x1 - 1z131z192z1 <= 0
x131x152x1 - 1z131z152z1 <= 0
x131x96x1 - 1z131z96z1 <= 0
x131x147x1 - 1z131z147z1 <= 0
x131x43x1 - 1z131z43z1 <= 0
x85x61x3 - 2z85z61z3 <= 0
x85x136x3 - 2z85z136z3 <= 0
x85x89x3 - 1z85z89z3 <= 0
x85x192x3 - 1z85z192z3 <= 0
x85x145x3 - 2z85z145z3 <= 0
x85x152x3 - 1z85z152z3 <= 0
x85x169x3 - 2z85z169z3 <= 0
x85x96x3 - 1z85z96z3 <= 0
x85x176x3 - 1z85z176z3 <= 0
x85x43x3 - 1z85z43z3 <= 0
x85x80x3 - 1z85z80z3 <= 0
x85x0x3 <= 2
x121x206x2 - 1z121z206z2 <= 0
x121x176x2 - 1z121z176z2 <= 0
x121x147x2 - 1z121z147z2 <= 0
x121x62x2 - 2z121z62z2 <= 0
x121x80x2 - 1z121z80z2 <= 0
x121x0x2 <= 2
x131x83x1 - 2z131z83z1 <= 0
x131x78x1 - 2z131z78z1 <= 0
x131x190x1 - 2z131z190z1 <= 0
x131x206x1 - 1z131z206z1 <= 0
x131x183x1 - 2z131z183z1 <= 0
x131x89x1 - 1z131z89z1 <= 0
x131x192x1 - 1z131z192z1 <= 0
x131x152x1 - 1z131z152z1 <= 0
x131x96x1 - 1z131z96z1 <= 0
x131x147x1 - 1z131z147z1 <= 0
x131x43x1 - 1z131z43z1 <= 0
x131x0x1 <= 2
x83x190x1 - 2z83z190z1 <= 0
x83x206x1 - 1z83z206z1 <= 0
x83x183x1 - 2z83z183z1 <= 0
x83x89x1 - 1z83z89z1 <= 0
x83x192x1 - 1z83z192z1 <= 0
x83x152x1 - 1z83z152z1 <= 0
x83x96x1 - 1z83z96z1 <= 0
x83x147x1 - 1z83z147z1 <= 0
x83x43x1 - 1z83z43z1 <= 0
x83x0x1 <= 2
x78x206x1 - 1z78z206z1 <= 0
x78x183x1 - 2z78z183z1 <= 0
x78x89x1 - 1z78z89z1 <= 0
x78x192x1 - 1z78z192z1 <= 0
x78x152x1 - 1z78z152z1 <= 0
x78x96x1 - 1z78z96z1 <= 0
x78x147x1 - 1z78z147z1 <= 0
x78x43x1 - 1z78z43z1 <= 0
x78x0x1 <= 2
x190x206x1 - 1z190z206z1 <= 0
x190x183x1 - 2z190z183z1 <= 0
x190x89x1 - 1z190z89z1 <= 0
x190x192x1 - 1z190z192z1 <= 0
x190x152x1 - 1z190z152z1 <= 0
x190x96x1 - 1z190z96z1 <= 0
x190x147x1 - 1z190z147z1 <= 0
x190x43x1 - 1z190z43z1 <= 0
x190x0x1 <= 2
x61x136x3 - 2z61z136z3 <= 0
x61x89x3 - 1z61z89z3 <= 0
x61x192x3 - 1z61z192z3 <= 0
x61x145x3 - 2z61z145z3 <= 0
x61x152x3 - 1z61z152z3 <= 0
x61x169x3 - 2z61z169z3 <= 0
x61x96x3 - 1z61z96z3 <= 0
x61x176x3 - 1z61z176z3 <= 0
x61x43x3 - 1z61z43z3 <= 0
x61x80x3 - 1z61z80z3 <= 0
x61x0x3 <= 2
x206x183x1 - 2z206z183z1 <= 0
x206x89x1 - 1z206z89z1 <= 0
x206x192x1 - 1z206z192z1 <= 0
x206x152x1 - 1z206z152z1 <= 0
x206x96x1 - 1z206z96z1 <= 0
x206x176x2 - 1z206z176z2 <= 0
x206x147x1 - 1z206z147z1 <= 0
x206x147x2 - 1z206z147z2 <= 0
x206x43x1 - 1z206z43z1 <= 0
x206x62x2 - 2z206z62z2 <= 0
x206x80x2 - 1z206z80z2 <= 0
x206x0x1 <= 1
x206x0x2 <= 1
x183x89x1 - 1z183z89z1 <= 0
x183x192x1 - 1z183z192z1 <= 0
x183x152x1 - 1z183z152z1 <= 0
x183x96x1 - 1z183z96z1 <= 0
x183x147x1 - 1z183z147z1 <= 0
x183x43x1 - 1z183z43z1 <= 0
x183x0x1 <= 2
x136x89x3 - 1z136z89z3 <= 0
x136x192x3 - 1z136z192z3 <= 0
x136x145x3 - 2z136z145z3 <= 0
x136x152x3 - 1z136z152z3 <= 0
x136x169x3 - 2z136z169z3 <= 0
x136x96x3 - 1z136z96z3 <= 0
x136x176x3 - 1z136z176z3 <= 0
x136x43x3 - 1z136z43z3 <= 0
x136x80x3 - 1z136z80z3 <= 0
x136x0x3 <= 2
x89x192x1 - 1z89z192z1 <= 0
x89x192x3 - 1z89z192z3 <= 0
x89x145x3 - 2z89z145z3 <= 0
x89x152x1 - 1z89z152z1 <= 0
x89x152x3 - 1z89z152z3 <= 0
x89x169x3 - 2z89z169z3 <= 0
x89x96x1 - 1z89z96z1 <= 0
x89x96x3 - 1z89z96z3 <= 0
x89x176x3 - 1z89z176z3 <= 0
x89x147x1 - 1z89z147z1 <= 0
x89x43x1 - 1z89z43z1 <= 0
x89x43x3 - 1z89z43z3 <= 0
x89x80x3 - 1z89z80z3 <= 0
x89x0x1 <= 1
x89x0x3 <= 1
x192x145x3 - 2z192z145z3 <= 0
x192x152x1 - 1z192z152z1 <= 0
x192x152x3 - 1z192z152z3 <= 0
x192x169x3 - 2z192z169z3 <= 0
x192x96x1 - 1z192z96z1 <= 0
x192x96x3 - 1z192z96z3 <= 0
x192x176x3 - 1z192z176z3 <= 0
x192x147x1 - 1z192z147z1 <= 0
x192x43x1 - 1z192z43z1 <= 0
x192x43x3 - 1z192z43z3 <= 0
x192x80x3 - 1z192z80z3 <= 0
x192x0x1 <= 1
x192x0x3 <= 1
x145x152x3 - 1z145z152z3 <= 0
x145x169x3 - 2z145z169z3 <= 0
x145x96x3 - 1z145z96z3 <= 0
x145x176x3 - 1z145z176z3 <= 0
x145x43x3 - 1z145z43z3 <= 0
x145x80x3 - 1z145z80z3 <= 0
x145x0x3 <= 2
x152x176x3 - 1z152z176z3 <= 0
x152x147x1 - 1z152z147z1 <= 0
x152x0x1 <= 1
x152x0x3 <= 1
x169x43x3 - 1z169z43z3 <= 0
x169x80x3 - 1z169z80z3 <= 0
x169x0x3 <= 2
x96x80x3 - 1z96z80z3 <= 0
x96x0x1 <= 1
x96x0x3 <= 1
x176x0x2 <= 1
x176x0x3 <= 1
x147x0x1 <= 1
x147x0x2 <= 1
x43x80x3 - 1z43z80z3 <= 0
x43x0x1 <= 1
x43x0x3 <= 1
x62x0x2 <= 2
x80x0x2 <= 1
x80x0x3 <= 1

Bounds
s19 = 5.029843
s35 = 5.253865
s59 = 5.197231
s108 = 5.409008
s20 = 4.833204
s64 = 5.704928
s160 = 5.622354
s85 = 5.401370
s131 = 5.937925
6.000000 <= s85 <= 6.000000
6.000000 <= s121 <= 6.140000
6.000000 <= s131 <= 6.110000
6.470000 <= s83 <= 7.470000
6.490000 <= s78 <= 7.490000
6.510000 <= s190 <= 7.510000
6.520000 <= s61 <= 7.520000
6.740000 <= s206 <= 7.740000
6.770000 <= s183 <= 7.770000
6.780000 <= s136 <= 7.780000
6.820000 <= s89 <= 7.820000
6.920000 <= s192 <= 7.920000
7.030000 <= s145 <= 8.030000
7.700000 <= s152 <= 8.700000
7.720000 <= s169 <= 8.720000
7.740000 <= s96 <= 8.740000
7.760000 <= s176 <= 8.760000
7.780000 <= s147 <= 8.780000
7.800000 <= s43 <= 8.800000
7.830000 <= s62 <= 8.830000
7.840000 <= s80 <= 8.840000

General
x19x83x1 x19x78x1 x19x190x1 x19x206x1 x19x206x2 x19x183x1 x19x89x1 x19x192x1 x19x152x1 x19x96x1 x19x176x2 x19x147x1 x19x147x2 x19x43x1 x19x62x2 x19x80x2 
x35x83x1 x35x78x1 x35x190x1 x35x206x1 x35x183x1 x35x89x1 x35x192x1 x35x152x1 x35x96x1 x35x147x1 x35x43x1 
x59x61x3 x59x206x2 x59x136x3 x59x89x3 x59x192x3 x59x145x3 x59x152x3 x59x169x3 x59x96x3 x59x176x2 x59x176x3 x59x147x2 x59x43x3 x59x62x2 x59x80x2 x59x80x3 
x108x83x1 x108x78x1 x108x190x1 x108x61x3 x108x206x1 x108x183x1 x108x136x3 x108x89x1 x108x89x3 x108x192x1 x108x192x3 x108x145x3 x108x152x1 x108x152x3 x108x169x3 x108x96x1 x108x96x3 x108x176x3 x108x147x1 x108x43x1 x108x43x3 x108x80x3 
x20x61x3 x20x206x2 x20x136x3 x20x89x3 x20x192x3 x20x145x3 x20x152x3 x20x169x3 x20x96x3 x20x176x2 x20x176x3 x20x147x2 x20x43x3 x20x62x2 x20x80x2 x20x80x3 
x64x206x2 x64x176x2 x64x147x2 x64x62x2 x64x80x2 
x160x61x3 x160x206x2 x160x136x3 x160x89x3 x160x192x3 x160x145x3 x160x152x3 x160x169x3 x160x96x3 x160x176x2 x160x176x3 x160x147x2 x160x43x3 x160x62x2 x160x80x2 x160x80x3 
x85x61x3 x85x136x3 x85x89x3 x85x192x3 x85x145x3 x85x152x3 x85x169x3 x85x96x3 x85x176x3 x85x43x3 x85x80x3 
x131x83x1 x131x78x1 x131x190x1 x131x206x1 x131x183x1 x131x89x1 x131x192x1 x131x152x1 x131x96x1 x131x147x1 x131x43x1 
x85x61x3 x85x136x3 x85x89x3 x85x192x3 x85x145x3 x85x152x3 x85x169x3 x85x96x3 x85x176x3 x85x43x3 x85x80x3 x85x0x3 
x121x206x2 x121x176x2 x121x147x2 x121x62x2 x121x80x2 x121x0x2 
x131x83x1 x131x78x1 x131x190x1 x131x206x1 x131x183x1 x131x89x1 x131x192x1 x131x152x1 x131x96x1 x131x147x1 x131x43x1 x131x0x1 
x83x190x1 x83x206x1 x83x183x1 x83x89x1 x83x192x1 x83x152x1 x83x96x1 x83x147x1 x83x43x1 x83x0x1 
x78x206x1 x78x183x1 x78x89x1 x78x192x1 x78x152x1 x78x96x1 x78x147x1 x78x43x1 x78x0x1 
x190x206x1 x190x183x1 x190x89x1 x190x192x1 x190x152x1 x190x96x1 x190x147x1 x190x43x1 x190x0x1 
x61x136x3 x61x89x3 x61x192x3 x61x145x3 x61x152x3 x61x169x3 x61x96x3 x61x176x3 x61x43x3 x61x80x3 x61x0x3 
x206x183x1 x206x89x1 x206x192x1 x206x152x1 x206x96x1 x206x176x2 x206x147x1 x206x147x2 x206x43x1 x206x62x2 x206x80x2 x206x0x1 x206x0x2 
x183x89x1 x183x192x1 x183x152x1 x183x96x1 x183x147x1 x183x43x1 x183x0x1 
x136x89x3 x136x192x3 x136x145x3 x136x152x3 x136x169x3 x136x96x3 x136x176x3 x136x43x3 x136x80x3 x136x0x3 
x89x192x1 x89x192x3 x89x145x3 x89x152x1 x89x152x3 x89x169x3 x89x96x1 x89x96x3 x89x176x3 x89x147x1 x89x43x1 x89x43x3 x89x80x3 x89x0x1 x89x0x3 
x192x145x3 x192x152x1 x192x152x3 x192x169x3 x192x96x1 x192x96x3 x192x176x3 x192x147x1 x192x43x1 x192x43x3 x192x80x3 x192x0x1 x192x0x3 
x145x152x3 x145x169x3 x145x96x3 x145x176x3 x145x43x3 x145x80x3 x145x0x3 
x152x176x3 x152x147x1 x152x0x1 x152x0x3 
x169x43x3 x169x80x3 x169x0x3 
x96x80x3 x96x0x1 x96x0x3 
x176x0x2 x176x0x3 
x147x0x1 x147x0x2 
x43x80x3 x43x0x1 x43x0x3 
x62x0x2 
x80x0x2 x80x0x3 

Binaries
y85 y121 y131 y83 y78 y190 y61 y206 y183 y136 y89 y192 y145 y152 y169 y96 y176 y147 y43 y62 y80 
z19z83z1 z19z78z1 z19z190z1 z19z206z1 z19z206z2 z19z183z1 z19z89z1 z19z192z1 z19z152z1 z19z96z1 z19z176z2 z19z147z1 z19z147z2 z19z43z1 z19z62z2 z19z80z2 
z35z83z1 z35z78z1 z35z190z1 z35z206z1 z35z183z1 z35z89z1 z35z192z1 z35z152z1 z35z96z1 z35z147z1 z35z43z1 
z59z61z3 z59z206z2 z59z136z3 z59z89z3 z59z192z3 z59z145z3 z59z152z3 z59z169z3 z59z96z3 z59z176z2 z59z176z3 z59z147z2 z59z43z3 z59z62z2 z59z80z2 z59z80z3 
z108z83z1 z108z78z1 z108z190z1 z108z61z3 z108z206z1 z108z183z1 z108z136z3 z108z89z1 z108z89z3 z108z192z1 z108z192z3 z108z145z3 z108z152z1 z108z152z3 z108z169z3 z108z96z1 z108z96z3 z108z176z3 z108z147z1 z108z43z1 z108z43z3 z108z80z3 
z20z61z3 z20z206z2 z20z136z3 z20z89z3 z20z192z3 z20z145z3 z20z152z3 z20z169z3 z20z96z3 z20z176z2 z20z176z3 z20z147z2 z20z43z3 z20z62z2 z20z80z2 z20z80z3 
z64z206z2 z64z176z2 z64z147z2 z64z62z2 z64z80z2 
z160z61z3 z160z206z2 z160z136z3 z160z89z3 z160z192z3 z160z145z3 z160z152z3 z160z169z3 z160z96z3 z160z176z2 z160z176z3 z160z147z2 z160z43z3 z160z62z2 z160z80z2 z160z80z3 
z85z61z3 z85z136z3 z85z89z3 z85z192z3 z85z145z3 z85z152z3 z85z169z3 z85z96z3 z85z176z3 z85z43z3 z85z80z3 
z131z83z1 z131z78z1 z131z190z1 z131z206z1 z131z183z1 z131z89z1 z131z192z1 z131z152z1 z131z96z1 z131z147z1 z131z43z1 
z85z61z3 z85z136z3 z85z89z3 z85z192z3 z85z145z3 z85z152z3 z85z169z3 z85z96z3 z85z176z3 z85z43z3 z85z80z3 
z121z206z2 z121z176z2 z121z147z2 z121z62z2 z121z80z2 
z131z83z1 z131z78z1 z131z190z1 z131z206z1 z131z183z1 z131z89z1 z131z192z1 z131z152z1 z131z96z1 z131z147z1 z131z43z1 
z83z190z1 z83z206z1 z83z183z1 z83z89z1 z83z192z1 z83z152z1 z83z96z1 z83z147z1 z83z43z1 
z78z206z1 z78z183z1 z78z89z1 z78z192z1 z78z152z1 z78z96z1 z78z147z1 z78z43z1 
z190z206z1 z190z183z1 z190z89z1 z190z192z1 z190z152z1 z190z96z1 z190z147z1 z190z43z1 
z61z136z3 z61z89z3 z61z192z3 z61z145z3 z61z152z3 z61z169z3 z61z96z3 z61z176z3 z61z43z3 z61z80z3 
z206z183z1 z206z89z1 z206z192z1 z206z152z1 z206z96z1 z206z176z2 z206z147z1 z206z147z2 z206z43z1 z206z62z2 z206z80z2 
z183z89z1 z183z192z1 z183z152z1 z183z96z1 z183z147z1 z183z43z1 
z136z89z3 z136z192z3 z136z145z3 z136z152z3 z136z169z3 z136z96z3 z136z176z3 z136z43z3 z136z80z3 
z89z192z1 z89z192z3 z89z145z3 z89z152z1 z89z152z3 z89z169z3 z89z96z1 z89z96z3 z89z176z3 z89z147z1 z89z43z1 z89z43z3 z89z80z3 
z192z145z3 z192z152z1 z192z152z3 z192z169z3 z192z96z1 z192z96z3 z192z176z3 z192z147z1 z192z43z1 z192z43z3 z192z80z3 
z145z152z3 z145z169z3 z145z96z3 z145z176z3 z145z43z3 z145z80z3 
z152z176z3 z152z147z1 
z169z43z3 z169z80z3 
z96z80z3 


z43z80z3 



End